80 254701
37 59 56 41 8 33 73 28 70 31 30 76 11 74 55 2 35 65 3 68 57 80 60 4 47 42 23 64 71 66 17 25 26 52 39 67 10 62 27 77 22 43 69 36 61 15 75 19 48 32 9 63 44 29 14 40 51 58 46 1 78 12 16 7 18 21 79 45 5 20 53 72 49 24 13 54 38 6 34 50 
